c Reduced graph for GEOM30a_2 generated by Cyril Grelier
p edge 21 60
e 1 5
e 1 12
e 1 13
e 1 16
e 1 17
e 1 20
e 2 3
e 2 6
e 2 8
e 2 10
e 2 14
e 3 6
e 3 10
e 5 9
e 5 12
e 5 13
e 5 15
e 5 16
e 5 17
e 5 18
e 5 19
e 5 21
e 6 8
e 6 10
e 6 14
e 7 11
e 7 12
e 7 17
e 7 20
e 8 10
e 8 14
e 9 11
e 9 12
e 9 15
e 9 17
e 10 14
e 11 12
e 11 17
e 11 20
e 12 15
e 12 16
e 12 17
e 12 20
e 13 15
e 13 16
e 13 17
e 13 18
e 13 19
e 13 21
e 15 17
e 15 19
e 16 17
e 16 18
e 16 19
e 16 20
e 16 21
e 17 20
e 18 19
e 18 21
e 19 21
